# Tg.in
#initialize
units            real
atom_style       full
dimension        3
newton           on
boundary         p p p

# Styles
pair_style       lj/cut/coul/long 12.0
pair_modify      shift no mix geometric
kspace_style     pppm 1.0e-4
bond_style harmonic
angle_style harmonic
dihedral_style opls
special_bonds lj/coul 0.0 0.0 0.5 

# System definition
read_data equilibrated_system.lmps

# Settings
dielectric 1.0
neighbor 2.0 bin
neigh_modify delay 0 every 1 check yes
timestep 1.0
run_style verlet

# Output
dump 1 all custom 1560000 compress.lammpstrj id xu yu zu vx vy vz ix iy iz
thermo_style custom step vol temp press etotal evdwl ecoul ebond eangle edihed eimp
thermo 1000
#output
log log_Tg.lammps
thermo_style custom step vol density temp press etotal
thermo 1000
#first heat system from 300 to 600
fix 1 all npt temp 700 700 100 iso 1 1 1000
velocity all scale 700
run 1000000
unfix 1
#
fix 1 all npt temp 680 680 100 iso 1 1 1000
velocity all scale 680
run 500000
unfix 1
#
fix 1 all npt temp 660 660 100 iso 1 1 1000
velocity all scale 660
run 500000
unfix 1
#
fix 1 all npt temp 640 640 100 iso 1 1 1000
velocity all scale 640
run 500000
unfix 1
#
fix 1 all npt temp 620 620 100 iso 1 1 1000
velocity all scale 620
run 500000
unfix 1
fix 1 all npt temp 600 600 100 iso 1 1 1000
velocity all scale 600
run 500000
unfix 1
#
fix 1 all npt temp 580 580 100 iso 1 1 1000
velocity all scale 580
run 500000
unfix 1
#
fix 1 all npt temp 560 560 100 iso 1 1 1000
velocity all scale 560
run 500000
unfix 1
#
fix 1 all npt temp 540 540 100 iso 1 1 1000
velocity all scale 540
run 500000
unfix 1
#
fix 1 all npt temp 520 520 100 iso 1 1 1000
velocity all scale 520
run 500000
unfix 1
#
fix 1 all npt temp 500 500 100 iso 1 1 1000
velocity all scale 500
run 500000
unfix 1
#
fix 1 all npt temp 480 480 100 iso 1 1 1000
velocity all scale 480
run 500000
unfix 1
#
fix 1 all npt temp 460 460 100 iso 1 1 1000
velocity all scale 460
run 500000
unfix 1
#
fix 1 all npt temp 440 440 100 iso 1 1 1000
velocity all scale 440
run 500000
unfix 1
#
fix 1 all npt temp 420 420 100 iso 1 1 1000
velocity all scale 420
run 500000
unfix 1
#
fix 1 all npt temp 400 400 100 iso 1 1 1000
velocity all scale 400
run 500000
unfix 1
#
fix 1 all npt temp 380 380 100 iso 1 1 1000
velocity all scale 380
run 500000
unfix 1
#
fix 1 all npt temp 360 360 100 iso 1 1 1000
velocity all scale 360
run 500000
unfix 1
#
fix 1 all npt temp 340 340 100 iso 1 1 1000
velocity all scale 340
run 500000
unfix 1
#
fix 1 all npt temp 320 320 100 iso 1 1 1000
velocity all scale 320
run 500000
unfix 1
#
fix 1 all npt temp 300 300 100 iso 1 1 1000
velocity all scale 300
run 500000
unfix 1
#
fix 1 all npt temp 280 280 100 iso 1 1 1000
velocity all scale 280
run 500000
unfix 1
#
fix 1 all npt temp 260 260 100 iso 1 1 1000
velocity all scale 260
run 500000
unfix 1
#
fix 1 all npt temp 240 240 100 iso 1 1 1000
velocity all scale 240
run 500000
unfix 1
#
fix 1 all npt temp 220 220 100 iso 1 1 1000
velocity all scale 220
run 500000
unfix 1
#
fix 1 all npt temp 200 200 100 iso 1 1 1000
velocity all scale 200
run 500000
unfix 1

#
fix 1 all npt temp 180 180 100 iso 1 1 1000
velocity all scale 180
run 500000
unfix 1
#
fix 1 all npt temp 160 160 100 iso 1 1 1000
velocity all scale 160
run 500000
unfix 1
#
fix 1 all npt temp 140 140 100 iso 1 1 1000
velocity all scale 140
run 500000
unfix 1
#
fix 1 all npt temp 120 120 100 iso 1 1 1000
velocity all scale 120
run 500000
unfix 1

fix 1 all npt temp 100 100 100 iso 1 1 1000
velocity all scale 100
run 500000
unfix 1

write_data   PS_WH_quenched.lmps




