# General
units real
atom_style full
dimension 3
newton on
boundary p p p
# Styles
pair_style lj/cut/coul/long 12.0
pair_modify mix arithmetic
kspace_style ewald 1.0e-4
bond_style harmonic
angle_style harmonic
dihedral_style fourier
improper_style none
special_bonds amber
# System definition
read_data 40ns_equil.lmps
# Settings
dielectric 1.0
neighbor 2.0 bin
neigh_modify delay 0 every 1 check yes
timestep 1.0
run_style verlet
#
group wt type 9 10 11 12
delete_atoms group wt bond yes
#reset_atom_ids sort yes
minimize 1.0e-3 1.0e-5 100000 400000   # minimization beforehand is optional
fix myfxnvt all nvt temp 300.0 300.0 100.0
thermo        100             # Report status every 100 timesteps.
thermo_style  custom step temp pe ke etotal epair ebond eangle edihed
timestep 1.0                  # The timestep might need to be adjusted.
run 0                    # Simulation duration (in timesteps)i
write_data dry.lmps
