#    LAMMPS production script 
#    This program is free software: you can redistribute it and/or modify
#    it under the terms of the GNU General Public License as published by
#    the Free Software Foundation, either version 3 of the License, or
#    (at your option) any later version.
#    This program is distributed in the hope that it will be useful,
#    but WITHOUT ANY WARRANTY; without even the implied warranty of
#    MERCHANTABILITY or FITNESS FOR A PARTICULAR PURPOSE.  See the
#    GNU General Public License for more details.


# General
units         real
atom_style    full
dimension     3
boundary      p p p
# Styles
pair_style      lj/cut/coul/long 15.0 10.0
pair_modify     shift no
kspace_style    pppm 1.0e-4
bond_style       harmonic
angle_style      harmonic
dihedral_style   opls
improper_style   cvff
special_bonds lj/coul 0.0 0.0 0.5
# System definition
read_data     data.lmps
# Settings
dielectric      1.0
neighbor        2.0 bin
neigh_modify    delay 0 every 1 check yes
timestep        1.0
run_style       verlet

#set thermostat
fix 1 all npt temp 300 300 100 iso 1 1 100

# Output
variable 	f file python.txt
variable 	s equal next(f)
dump 1 all custom 5000 prod.lammpstrj id mol type q xs ys zs ix iy iz
dump_modify 	1 every v_s
dump_modify 	1 append yes
thermo_style custom step vol temp press density etotal evdwl ecoul ebond eangle edihed
thermo 1000
restart 1048576 file.restart
run 12582912

write_data  20M_equil.lmps
